(assert (forall ((pkt_0_4_6_0  Int  )(state_group_0_state_0_5_7_0  Int  )(state_group_0_state_1_6_8_0  Int  )) (let ((_n0 state_group_0_state_1_6_8_0 ))
(let ((_n1 state_group_0_state_0_5_7_0 ))
(let ((_n2 true ))
(let ((_n3 (+   _n1   (ite  _n2  1 0) ) ))
(let ((_n4 (ite (=  _n0  0)  _n3   _n1  ) ))
(let ((_n5 pkt_0_4_6_0 ))
(let ((_n6 (-  _n5 )))
(let ((_n7 (<   (ite  _n2  1 0)   _n6 ) ))
(let ((_n8 false ))
(let ((_n9 (ite  _n7   (ite  _n8  1 0)   _n0  ) ))
(let ((_n10 (<   _n9   (ite  _n2  1 0) ) ))
(let ((_n11 (ite  _n7   _n8   _n10  ) ))
(let ((_n12 (not  _n11 ) ))
(let ((_n13 (or   _n12   _n7 ) ))
(let ((_n14 999 ))
(let ((_n15 (ite  _n13   (ite  _n8  1 0)   _n5  ) ))
(let ((_n16 (<   _n15   _n14 ) ))
(let ((_n17 (ite  _n13   _n8   _n16  ) ))
(let ((_n18 (or   _n17   _n13 ) ))
(let ((_n19 (ite  _n18   (ite  _n8  1 0)   _n5  ) ))
(let ((_n20 (ite  _n18   _n1   (ite  _n8  1 0)  ) ))
(let ((_n21 (+   _n20   _n19 ) ))
(let ((_n22 (not  _n17 ) ))
(let ((_n23 (or   _n22   _n13 ) ))
(let ((_n24 (not  _n23 ) ))
(let ((_n25 (+   _n1   (ite  _n24  1 0) ) ))
(let ((_n26 (ite (=  (ite  _n17  1 0)  1)  _n25   _n21  ) ))
(let ((_n27 (ite (=  (ite  _n11  1 0)  1)  _n26   _n1  ) ))
(let ((_n28 (ite  _n7   _n1   (ite  _n8  1 0)  ) ))
(let ((_n29 (=   _n28   (ite  _n2  1 0) ) ))
(let ((_n30 (not  _n29 ) ))
(let ((_n31 (and   _n7   _n30 ) ))
(let ((_n32 (not  _n7 ) ))
(let ((_n33 (or   _n31   _n32 ) ))
(let ((_n34 (ite  _n33   (ite  _n8  1 0)   _n5  ) ))
(let ((_n35 (+   _n34   _n34 ) ))
(let ((_n36 (ite  _n33   (ite  _n8  1 0)   _n35  ) ))
(let ((_n37 (+   _n1   _n36 ) ))
(let ((_n38 (and   _n31   _n7 ) ))
(let ((_n39 (ite  _n38   _n5   (ite  _n8  1 0)  ) ))
(let ((_n40 (+   _n39   _n39 ) ))
(let ((_n41 (ite  _n38   _n40   (ite  _n8  1 0)  ) ))
(let ((_n42 (+   _n1   _n41 ) ))
(let ((_n43 (ite (=  (ite  _n31  1 0)  1)  _n42   _n37  ) ))
(let ((_n44 (ite (=  (ite  _n7  1 0)  1)  _n43   _n27  ) ))
(let ((_n45 (=   _n44   _n4 ) ))
(let ((_n47 (ite (=  _n1  999)  (ite  _n2  1 0)   _n0  ) ))
(let ((_n48 (ite (=  _n0  0)  _n47   _n0  ) ))
(let ((_n49 (ite  _n18   (ite  _n8  1 0)   _n14  ) ))
(let ((_n50 (-  _n49 )))
(let ((_n51 (+   _n19   _n50 ) ))
(let ((_n52 (ite  _n18   (ite  _n8  1 0)   _n51  ) ))
(let ((_n53 (+   _n0   _n52 ) ))
(let ((_n54 (ite (=  (ite  _n17  1 0)  1)  _n0   _n53  ) ))
(let ((_n55 (ite (=  (ite  _n11  1 0)  1)  _n54   _n0  ) ))
(let ((_n56 (+   _n0   _n36 ) ))
(let ((_n57 (+   _n0   _n41 ) ))
(let ((_n58 (ite (=  (ite  _n31  1 0)  1)  _n57   _n56  ) ))
(let ((_n59 (ite (=  (ite  _n7  1 0)  1)  _n58   _n55  ) ))
(let ((_n60 (=   _n59   _n48 ) ))
(let ((_n62 (ite (=  _n5  0)  (ite  _n8  1 0)   _n5  ) ))
(let ((_n63 (=   _n62   _n5 ) ))
(implies  (and (and (>= state_group_0_state_1_6_8_0 0) (< state_group_0_state_1_6_8_0 1024 ))  (and (and (>= state_group_0_state_0_5_7_0 0) (< state_group_0_state_0_5_7_0 1024 ))  (and (>= pkt_0_4_6_0 0) (< pkt_0_4_6_0 1024 )) ) )   (and  _n45  _n60  _n63 )  )))))))))))))))))))))))))))))))))))))))))))))))))))))))))))))))))
(check-sat)
(get-model)
(exit)